200
[20,21,22,23,24,25,26,27,28,29,30,31,32,33,34,35,36,37,38,39,40,41,42,43,44,45,46,47,48,50,51,52,53,54,55,56,57,58,59,60,61,62,63,64,66,67,68,69,70,71,72,73,74,75,77,78,79,80,81,82,83,84,85,86,87,88,89,91,92,94,95,96,97,99,100,101,102,103,104,105,106,107,108,109,111,112,113,114,115,116,117,118,119,120,121,122,124,126,127,128,129,130,131,132,133,134,135,136,137,138,139,140]
[4,3,4,2,5,3,2,3,1,2,1,2,4,1,9,1,3,4,1,3,4,4,4,2,1,1,6,5,2,1,3,2,5,4,2,4,4,1,4,3,3,4,2,2,3,1,3,1,1,3,1,3,1,3,1,2,1,3,2,1,2,2,2,6,2,2,4,2,5,2,4,2,3,3,1,4,1,3,5,4,1,4,1,3,1,2,2,2,3,3,1,3,1,5,3,7,2,4,1,1,3,1,1,2,3,2,4,1,3,4,4,2]
